NAME : n80w20.004.694.tour
COMMENT : Length = 694
COMMENT : Found by LKH [Keld Helsgaun] Tue May  2 05:48:13 2017
TYPE : TOUR
DIMENSION : 81
TOUR_SECTION
1
71
25
48
75
21
66
15
17
11
9
23
73
54
40
10
63
13
64
6
26
76
43
30
24
68
32
12
74
57
52
65
35
44
46
22
62
16
41
45
37
4
49
31
18
80
19
38
20
58
7
67
61
39
36
42
78
2
28
70
69
50
51
3
8
77
29
53
59
60
55
47
27
33
79
72
5
56
81
14
34
-1
EOF
